unsat
(:binary-propagations  36
 :conflicts            1
 :final-checks         1
 :max-generation       1
 :max-memory           23.74
 :memory               21.01
 :mk-bool-var          482
 :mk-clause            131
 :mk-clause-binary     614
 :num-allocs           9290059
 :num-checks           1
 :propagations         36
 :quant-instantiations 106
 :restarts             1
 :rlimit-count         133694
 :time                 0.02)
